SECTION Graph
Nodes 119
Edges 206
E 1 9 154
E 1 71 1
E 1 72 1
E 2 3 1
E 2 67 154
E 2 72 7
E 3 74 7
E 4 6 7
E 4 25 1
E 4 92 2
E 5 6 2
E 5 92 7
E 5 97 1
E 5 98 1
E 6 99 1
E 6 100 1
E 7 62 8
E 7 64 1
E 7 65 1
E 8 66 7
E 8 67 4
E 9 10 1
E 9 64 4
E 10 66 4
E 10 67 7
E 10 72 154
E 11 12 1
E 11 57 25
E 11 62 12
E 12 63 12
E 13 14 8
E 13 75 362
E 13 76 360
E 13 79 258
E 14 15 1
E 14 81 258
E 15 77 368
E 16 17 1
E 16 60 4
E 17 61 4
E 17 62 22
E 18 52 1
E 18 53 2
E 19 20 2
E 19 52 7
E 19 56 15
E 20 54 7
E 20 55 3
E 20 58 15
E 21 22 1
E 21 53 3
E 22 54 3
E 22 55 7
E 23 24 6
E 23 78 359
E 24 73 253
E 24 79 359
E 25 99 7
E 26 27 2
E 26 99 1
E 26 100 1
E 28 88 1
E 28 91 2
E 28 96 7
E 29 30 2
E 29 33 1
E 29 96 1
E 30 97 1
E 30 98 1
E 31 86 1
E 31 88 2
E 31 94 7
E 32 33 2
E 32 36 1
E 32 94 1
E 33 95 1
E 34 85 1
E 34 86 2
E 34 90 7
E 35 36 2
E 35 39 1
E 35 90 1
E 36 93 1
E 37 84 2
E 37 85 2
E 37 87 7
E 38 39 2
E 38 42 2
E 38 87 1
E 39 89 1
E 40 41 8
E 40 83 1
E 40 84 2
E 41 42 2
E 41 45 1
E 42 84 8
E 43 44 8
E 43 82 4
E 43 83 2
E 44 45 2
E 44 48 4
E 45 83 8
E 46 47 8
E 46 70 155
E 46 82 2
E 47 48 2
E 47 77 155
E 48 82 8
E 49 50 8
E 49 68 2
E 50 51 2
E 50 73 1
E 51 68 8
E 51 75 1
E 51 76 3
E 52 54 2
E 53 54 1
E 55 60 15
E 56 57 1
E 56 58 2
E 57 59 2
E 58 59 1
E 58 60 3
E 59 61 3
E 60 61 1
E 62 63 1
E 63 65 8
E 64 66 1
E 65 66 1
E 68 69 3
E 69 70 1
E 69 76 8
E 70 77 8
E 71 74 1
E 71 80 139
E 72 74 1
E 73 75 2
E 76 77 1
E 78 79 6
E 78 80 8
E 79 81 8
E 80 81 6
E 85 89 7
E 86 93 7
E 87 89 2
E 88 95 7
E 89 90 1
E 90 93 2
E 91 92 1
E 91 97 7
E 93 94 1
E 94 95 2
E 95 96 1
E 96 97 2
E 98 100 2
E 1 101 100000
E 2 101 100000
E 3 101 100000
E 4 102 100000
E 5 102 100000
E 6 102 100000
E 7 103 100000
E 8 103 100000
E 9 104 100000
E 10 104 100000
E 11 105 100000
E 12 105 100000
E 13 106 100000
E 14 106 100000
E 15 106 100000
E 16 107 100000
E 17 107 100000
E 18 108 100000
E 19 108 100000
E 20 108 100000
E 21 109 100000
E 22 109 100000
E 23 110 100000
E 24 110 100000
E 25 111 100000
E 26 111 100000
E 27 111 100000
E 28 112 100000
E 29 112 100000
E 30 112 100000
E 31 113 100000
E 32 113 100000
E 33 113 100000
E 34 114 100000
E 35 114 100000
E 36 114 100000
E 37 115 100000
E 38 115 100000
E 39 115 100000
E 40 116 100000
E 41 116 100000
E 42 116 100000
E 43 117 100000
E 44 117 100000
E 45 117 100000
E 46 118 100000
E 47 118 100000
E 48 118 100000
E 49 119 100000
E 50 119 100000
E 51 119 100000
END

SECTION Terminals
Terminals 19
T 101
T 102
T 103
T 104
T 105
T 106
T 107
T 108
T 109
T 110
T 111
T 112
T 113
T 114
T 115
T 116
T 117
T 118
T 119
END

EOF
